r = [
0,2,91,26,110,175,62,45,109,150,36,152,6,163,26,157,176,202,26,78,111,149,184,175,54,113,0
];
p = [
0,25,29,3,15,8,27,8,27,2,1,23,24,17,27,1,4,10,15,15,22,17,29,11,20,23,0
];
e = [
0,3,11,8,4,10,17,18,2,11,9,15,20,17,17,2,4,3,9,13,15,18,20,15,17,15,0
];
d = [
0,206,309,212,316,371,250,230,311,368,247,350,195,345,245,364,366,413,209,297,303,354,375,377,236,296,414
];
d_bar = [
0,209,312,213,318,372,253,231,314,369,248,352,197,347,248,365,367,414,211,299,305,356,378,378,238,298,414
];
w = [
0,1,3.666666667,8,2,10,5.666666667,18,0.666666667,11,9,7.5,10,8.5,5.666666667,2,4,3,4.5,6.5,7.5,9,6.666666667,15,8.5,7.5,0
];
